50
7161

689 610
879 972
884 555
460 224
366 806
872 499
675 711
766 532
617 728
576 931
311 107
296 878
500 571
993 188
544 174
762 295
440 821
769 326
653 573
150 61
343 907
166 416
57 821
863 16
927 95
903 404
63 886
927 316
440 151
116 230
808 651
217 746
530 593
509 295
710 712
754 713
650 837
408 704
234 992
184 132
843 72
314 367
111 79
694 292
176 817
358 863
439 307
630 258
330 8
353 588
